NAME : 35si175.5564.tour
COMMENT : Length = 5564
COMMENT : Found by LKH [Keld Helsgaun] Wed Jun  5 21:40:46 2013
TYPE : TOUR
DIMENSION : 35
TOUR_SECTION
2
3
18
20
4
29
28
67
73
74
107
111
152
164
123
124
131
132
135
139
138
168
113
148
103
102
87
45
83
96
38
79
35
8
10
-1
EOF
